data/solutions/recovery/degenerate/moderate/flexible/degenerate_moderate_instance6/27.sol
Elapsed time: 0.08
Upper bound: 10521504.0
Planning weighted value: 65886212.0
C[0]=10521504.0
C[1]=10501079.0
C[2]=10496272.0
y[0]=0
y[1]=2
y[2]=1
y[3]=0
y[4]=2
y[5]=0
y[6]=1
y[7]=2
y[8]=0
y[9]=2
y[10]=0
y[11]=1
y[12]=1
y[13]=1
y[14]=2
y[15]=1
y[16]=1
y[17]=0
y[18]=1
y[19]=1
y[20]=0
y[21]=1
y[22]=1
y[23]=0
y[24]=1
y[25]=2
